p cnf 7230 18
5587 -5588 0
-1 -4542 -4898 -5363 5584 0
-1 -4656 -5363 -5584 5585 0
5584 -5586 0
1 -5586 0
4542 -5584 0
4898 -5584 0
4656 -5586 0
-5585 5586 0
5363 -5586 0
-1 -4556 -4654 -4908 -5369 5588 0
-5583 5584 0
5583 -5584 0
5369 -5588 0
4908 -5588 0
4654 -5588 0
4556 -5588 0
1 -5588 0
